输出/data/coverage_paths/block_13.tsp
NAME: block_13
TYPE: TSP
COMMENT: Water block sampling points with virtual node for Path TSP
DIMENSION: 7
EDGE_WEIGHT_TYPE: EXPLICIT
EDGE_WEIGHT_FORMAT: FULL_MATRIX
EDGE_WEIGHT_SECTION
0 3359 5250 3400 5250 8693 0
3359 0 5510 3417 4999 8384 0
5250 5510 0 4000 8000 12000 12345000
3400 3417 4000 0 4000 8000 12345000
5250 4999 8000 4000 0 4000 12345000
8693 8384 12000 8000 4000 0 12345000
0 0 12345000 12345000 12345000 12345000 0
EOF
